c Instancia generada aleatoriamente
p edge 20 92
e 1 3
e 1 7
e 1 8
e 1 9
e 1 10
e 1 14
e 1 19
e 2 5
e 2 7
e 2 11
e 2 13
e 2 14
e 2 15
e 2 19
e 3 7
e 3 8
e 3 16
e 3 18
e 4 6
e 4 7
e 4 8
e 4 11
e 4 14
e 4 15
e 4 16
e 4 18
e 4 19
e 4 20
e 5 6
e 5 8
e 5 9
e 5 11
e 5 13
e 5 14
e 5 16
e 5 20
e 6 7
e 6 11
e 6 13
e 6 14
e 6 15
e 6 16
e 6 17
e 6 19
e 6 20
e 7 8
e 7 10
e 7 11
e 7 12
e 7 13
e 7 17
e 8 9
e 8 10
e 8 12
e 8 14
e 8 15
e 8 16
e 8 20
e 9 10
e 9 11
e 9 17
e 9 19
e 9 20
e 10 11
e 10 12
e 10 13
e 10 14
e 10 16
e 10 17
e 10 19
e 11 15
e 11 16
e 11 17
e 11 19
e 12 14
e 12 15
e 12 17
e 12 19
e 13 14
e 13 16
e 13 17
e 13 18
e 14 15
e 14 18
e 14 19
e 15 17
e 16 18
e 16 19
e 17 18
e 17 20
e 18 20
e 19 20
